c CNF file corresponding to a (partial) station packing problem.
p cnf 7099 184
1 2 3 4 5 6 7 8 9 10 11 12 13 14 0
-1 -2 0
-1 -3 0
-1 -4 0
-1 -5 0
-1 -6 0
-1 -7 0
-1 -8 0
-1 -9 0
-1 -10 0
-1 -11 0
-1 -12 0
-1 -13 0
-1 -14 0
-2 -3 0
-2 -4 0
-2 -5 0
-2 -6 0
-2 -7 0
-2 -8 0
-2 -9 0
-2 -10 0
-2 -11 0
-2 -12 0
-2 -13 0
-2 -14 0
-3 -4 0
-3 -5 0
-3 -6 0
-3 -7 0
-3 -8 0
-3 -9 0
-3 -10 0
-3 -11 0
-3 -12 0
-3 -13 0
-3 -14 0
-4 -5 0
-4 -6 0
-4 -7 0
-4 -8 0
-4 -9 0
-4 -10 0
-4 -11 0
-4 -12 0
-4 -13 0
-4 -14 0
-5 -6 0
-5 -7 0
-5 -8 0
-5 -9 0
-5 -10 0
-5 -11 0
-5 -12 0
-5 -13 0
-5 -14 0
-6 -7 0
-6 -8 0
-6 -9 0
-6 -10 0
-6 -11 0
-6 -12 0
-6 -13 0
-6 -14 0
-7 -8 0
-7 -9 0
-7 -10 0
-7 -11 0
-7 -12 0
-7 -13 0
-7 -14 0
-8 -9 0
-8 -10 0
-8 -11 0
-8 -12 0
-8 -13 0
-8 -14 0
-9 -10 0
-9 -11 0
-9 -12 0
-9 -13 0
-9 -14 0
-10 -11 0
-10 -12 0
-10 -13 0
-10 -14 0
-11 -12 0
-11 -13 0
-11 -14 0
-12 -13 0
-12 -14 0
-13 -14 0
7086 7087 7088 7089 7090 7091 7092 7093 7094 7095 7096 7097 7098 7099 0
-7086 -7087 0
-7086 -7088 0
-7086 -7089 0
-7086 -7090 0
-7086 -7091 0
-7086 -7092 0
-7086 -7093 0
-7086 -7094 0
-7086 -7095 0
-7086 -7096 0
-7086 -7097 0
-7086 -7098 0
-7086 -7099 0
-7087 -7088 0
-7087 -7089 0
-7087 -7090 0
-7087 -7091 0
-7087 -7092 0
-7087 -7093 0
-7087 -7094 0
-7087 -7095 0
-7087 -7096 0
-7087 -7097 0
-7087 -7098 0
-7087 -7099 0
-7088 -7089 0
-7088 -7090 0
-7088 -7091 0
-7088 -7092 0
-7088 -7093 0
-7088 -7094 0
-7088 -7095 0
-7088 -7096 0
-7088 -7097 0
-7088 -7098 0
-7088 -7099 0
-7089 -7090 0
-7089 -7091 0
-7089 -7092 0
-7089 -7093 0
-7089 -7094 0
-7089 -7095 0
-7089 -7096 0
-7089 -7097 0
-7089 -7098 0
-7089 -7099 0
-7090 -7091 0
-7090 -7092 0
-7090 -7093 0
-7090 -7094 0
-7090 -7095 0
-7090 -7096 0
-7090 -7097 0
-7090 -7098 0
-7090 -7099 0
-7091 -7092 0
-7091 -7093 0
-7091 -7094 0
-7091 -7095 0
-7091 -7096 0
-7091 -7097 0
-7091 -7098 0
-7091 -7099 0
-7092 -7093 0
-7092 -7094 0
-7092 -7095 0
-7092 -7096 0
-7092 -7097 0
-7092 -7098 0
-7092 -7099 0
-7093 -7094 0
-7093 -7095 0
-7093 -7096 0
-7093 -7097 0
-7093 -7098 0
-7093 -7099 0
-7094 -7095 0
-7094 -7096 0
-7094 -7097 0
-7094 -7098 0
-7094 -7099 0
-7095 -7096 0
-7095 -7097 0
-7095 -7098 0
-7095 -7099 0
-7096 -7097 0
-7096 -7098 0
-7096 -7099 0
-7097 -7098 0
-7097 -7099 0
-7098 -7099 0
